results/real/sos1/may_19_301.in
Version identifier: 22.1.0.0 | 2022-03-09 | 1a383f8ce
CPXPARAM_Threads                                 1
CPXPARAM_MIP_Strategy_VariableSelect             3
CPXPARAM_TimeLimit                               599.99993109399998
1 of 1 MIP starts provided solutions.
MIP start 'm1' defined initial solution with objective 226.0000.
Tried aggregator 2 times.
MIP Presolve eliminated 344 rows and 904 columns.
MIP Presolve added 36 rows and 9 columns.
MIP Presolve modified 42 coefficients.
Aggregator did 9 substitutions.
Reduced MIP has 1803 rows, 3010 columns, and 70215 nonzeros.
Reduced MIP has 3010 binaries, 0 generals, 0 SOSs, and 0 indicators.
Presolve time = 0.09 sec. (143.78 ticks)
Probing time = 0.01 sec. (12.34 ticks)
Tried aggregator 1 time.
Detecting symmetries...
MIP Presolve modified 10 coefficients.
Reduced MIP has 1803 rows, 3010 columns, and 70363 nonzeros.
Reduced MIP has 3010 binaries, 0 generals, 0 SOSs, and 0 indicators.
Presolve time = 0.06 sec. (107.20 ticks)
Probing time = 0.01 sec. (12.35 ticks)
Clique table members: 1197.
MIP emphasis: balance optimality and feasibility.
MIP search method: dynamic search.
Parallel mode: none, using 1 thread.
Root relaxation solution time = 0.03 sec. (29.94 ticks)

        Nodes                                         Cuts/
   Node  Left     Objective  IInf  Best Integer    Best Bound    ItCnt     Gap

*     0+    0                          226.0000    45451.0000              --- 
      0     0      301.0000   115      226.0000      301.0000      549   33.19%
*     0+    0                          301.0000      301.0000             0.00%
      0     0        cutoff            301.0000      301.0000      549    0.00%
Elapsed time = 0.37 sec. (447.92 ticks, tree = 0.01 MB, solutions = 2)

Root node processing (before b&c):
  Real time             =    0.37 sec. (448.07 ticks)
Sequential b&c:
  Real time             =    0.00 sec. (0.00 ticks)
                          ------------
Total (root+branch&cut) =    0.37 sec. (448.07 ticks)
Primal:	301
Dual:	301
Status:	Optimal
Time:	0.4
Sequence:
	5
	4
	3
	8
	4
	9
	9
	1
	9
	7
	9
	9
	9
	9
	9
	9
	10
	9
	9
	7
	9
	1
	9
	9
	9
	7
	9
	1
	9
	9
	9
	7
	9
	9
	9
	9
	9
	5
	9
	4
	7
	9
	9
	9
	9
	9
	7
	9
	5
	4
	9
	1
	9
	5
	9
	9
	9
	9
	9
	9
	7
	9
	5
	9
	9
	9
	9
	9
	9
	9
	7
	9
	9
	9
	9
	9
	4
	9
	7
	4
	1
	4
	5
	9
	4
	7
	9
	4
	4
	9
	1
	4
	9
	5
	9
	5
	0
	7
	4
	1
	9
	5
	0
	9
	7
	4
	9
	4
	1
	4
	0
	4
	7
	0
	1
	9
	9
	4
	7
	9
	9
	9
	9
	9
	9
	7
	9
	9
	9
	4
	9
	7
	9
	9
	5
	9
	5
	9
	10
	9
	9
	9
	7
	9
	9
	9
	9
	9
	9
	9
	9
	7
	9
	9
	1
	9
	9
	7
	9
	9
	1
	9
	9
	9
	7
	9
	9
	5
	9
	9
	5
	9
	5
	0
	1
	9
	5
	9
	1
	0
	5
	9
	5
	0
	9
	7
	0
	1
	9
	1
	9
	7
	4
	9
	8
	5
	9
	5
	0
	5
	4
	9
	7
	9
	9
	9
	5
	9
	7
	0
	1
	9
	0
	1
	9
	9
	3
	9
	1
	0
	1
	9
	7
	9
	9
	5
	9
	1
	9
	9
	7
	9
	9
	9
	9
	9
	1
	9
	5
	9
	1
	9
	9
	7
	9
	1
	9
	9
	9
	1
	9
	9
	7
	9
	9
	5
	9
	9
	9
	9
	7
	9
	4
	9
	9
	4
	9
	4
	9
	7
	9
	4
	4
	1
	4
	4
	9
	3
	4
	4
	1
	4
	1
	4
	4
	1
	9
	0
	1
	9
	4
	4
	1
	4
	8
	9
	7
	9
	9
	4
	5
